\ This file has been generated by DOcplex
\ ENCODING=ISO-8859-1
\Problem name: Qrandom17742_6.lp

Minimize
 obj: - 955580 x0 - 477790 x1 - 238895 x2 - 953012 x3 - 476506 x4 - 238253 x5 +
      [ 547136 x0^2 + 547136 x0*x1 + 273568 x0*x2 + 1091840 x0*x3 + 545920 x0*x4
      + 272960 x0*x5 + 136784 x1^2 + 136784 x1*x2 + 545920 x1*x3 + 272960 x1*x4
      + 136480 x1*x5 + 34196 x2^2 + 272960 x2*x3 + 136480 x2*x4 + 68240 x2*x5
      + 550208 x3^2 + 550208 x3*x4 + 275104 x3*x5 + 137552 x4^2 + 137552 x4*x5
      + 34388 x5^2 ]/2 + 834911
Subject To

Bounds
 0 <= x0 <= 1
 0 <= x1 <= 1
 0 <= x2 <= 1
 0 <= x3 <= 1
 0 <= x4 <= 1
 0 <= x5 <= 1

Binaries
 x0 x1 x2 x3 x4 x5
End
